====================================================================================================================
File name: 200_40_130_9_D4.def
Creation date: Tue Nov 25 16:29:04 CET 2014
Website: http://imopse.ii.pwr.edu.pl/
Reference:
Myszkowski P. B., Skowronski M. E., Olech L., Oslizlo K.,
Hybrid Ant Colony Optimization in solving Multi-Skill Resource-Constrained Project Scheduling Problem,
Soft Computing, DOI: DOI 10.1007/s00500-014-1455-x
====================================================================================================================
====================================================================================================================
=====================================================IMPORTANT======================================================
====================================================================================================================
Lacking task identifiers is a result of transforming definitions from MPP to DEF format.
Those lacking ids reflects to the summary tasks, available in MS Project definition that have been removed here.
 Therefore number of precedence relations increased, as relations between summary task had to be multiplied
to all tasks that were included into summary ones. Both file definition formats are compatible with each other.
====================================================================================================================
The file is free from calendar restrictions, typical for .mpp format
====================================================================================================================
General characteristics:
Tasks: 154
Resources: 40
Precedence relations: 376
Number of skill types: 9
====================================================================================================================
ResourceID 	 Salary 	 Skills
1	 	 	10.7	 	 Q7: 2 	  Q1: 1 	  Q6: 0 	  Q8: 0 	  Q4: 0 	  Q0: 0
2	 	 	10.8	 	 Q4: 0 	  Q1: 2 	  Q5: 0 	  Q6: 0 	  Q8: 2 	  Q7: 0
3	 	 	39.2	 	 Q3: 2 	  Q7: 0 	  Q4: 2 	  Q1: 0 	  Q6: 2 	  Q8: 1
4	 	 	29.7	 	 Q0: 1 	  Q6: 0 	  Q7: 0 	  Q5: 1 	  Q4: 2 	  Q2: 2
5	 	 	25.2	 	 Q1: 0 	  Q6: 0 	  Q8: 2 	  Q7: 1 	  Q0: 0 	  Q5: 0
6	 	 	22.5	 	 Q2: 1 	  Q6: 0 	  Q5: 1 	  Q3: 1 	  Q0: 1 	  Q1: 1
7	 	 	17.3	 	 Q8: 2 	  Q1: 2 	  Q3: 0 	  Q0: 0 	  Q7: 2 	  Q5: 1
8	 	 	23.5	 	 Q3: 1 	  Q2: 0 	  Q8: 0 	  Q6: 1 	  Q0: 1 	  Q4: 0
9	 	 	22.0	 	 Q8: 2 	  Q2: 0 	  Q4: 1 	  Q0: 0 	  Q1: 1 	  Q6: 2
10	 	 	25.8	 	 Q2: 0 	  Q5: 0 	  Q0: 1 	  Q6: 0 	  Q7: 1 	  Q8: 1
11	 	 	20.1	 	 Q0: 1 	  Q6: 2 	  Q8: 1 	  Q2: 0 	  Q1: 0 	  Q5: 1
12	 	 	21.1	 	 Q6: 1 	  Q5: 2 	  Q0: 1 	  Q2: 0 	  Q7: 0 	  Q1: 2
13	 	 	13.8	 	 Q3: 1 	  Q5: 2 	  Q6: 1 	  Q8: 0 	  Q2: 0 	  Q1: 2
14	 	 	29.0	 	 Q7: 0 	  Q8: 0 	  Q6: 2 	  Q1: 1 	  Q0: 0 	  Q3: 1
15	 	 	36.5	 	 Q8: 2 	  Q3: 2 	  Q2: 1 	  Q0: 2 	  Q6: 1 	  Q5: 0
16	 	 	37.6	 	 Q6: 1 	  Q4: 0 	  Q3: 2 	  Q1: 2 	  Q7: 0 	  Q0: 1
17	 	 	14.6	 	 Q2: 0 	  Q7: 1 	  Q0: 2 	  Q5: 2 	  Q6: 0 	  Q3: 2
18	 	 	10.8	 	 Q7: 1 	  Q8: 0 	  Q5: 0 	  Q3: 0 	  Q2: 1 	  Q6: 1
19	 	 	33.8	 	 Q2: 1 	  Q6: 2 	  Q3: 0 	  Q8: 0 	  Q5: 0 	  Q7: 1
20	 	 	38.6	 	 Q8: 1 	  Q4: 1 	  Q3: 2 	  Q5: 2 	  Q0: 0 	  Q7: 1
21	 	 	12.7	 	 Q5: 1 	  Q4: 2 	  Q8: 1 	  Q2: 2 	  Q7: 2 	  Q6: 2
22	 	 	39.0	 	 Q1: 0 	  Q7: 1 	  Q0: 1 	  Q2: 1 	  Q4: 1 	  Q6: 0
23	 	 	39.9	 	 Q4: 0 	  Q6: 0 	  Q3: 1 	  Q8: 0 	  Q1: 1 	  Q7: 2
24	 	 	35.9	 	 Q6: 1 	  Q2: 2 	  Q7: 2 	  Q3: 0 	  Q5: 1 	  Q0: 0
25	 	 	16.4	 	 Q1: 2 	  Q0: 0 	  Q4: 1 	  Q8: 0 	  Q2: 0 	  Q5: 0
26	 	 	32.0	 	 Q7: 0 	  Q4: 1 	  Q6: 2 	  Q3: 2 	  Q2: 1 	  Q1: 2
27	 	 	26.7	 	 Q1: 1 	  Q6: 2 	  Q4: 2 	  Q0: 1 	  Q8: 0 	  Q7: 2
28	 	 	27.0	 	 Q0: 1 	  Q4: 2 	  Q2: 2 	  Q1: 0 	  Q5: 2 	  Q8: 2
29	 	 	35.0	 	 Q6: 2 	  Q0: 0 	  Q5: 0 	  Q2: 1 	  Q1: 2 	  Q4: 0
30	 	 	33.1	 	 Q8: 1 	  Q0: 0 	  Q2: 1 	  Q7: 2 	  Q5: 1 	  Q1: 2
31	 	 	14.4	 	 Q6: 1 	  Q1: 0 	  Q0: 2 	  Q7: 2 	  Q3: 1 	  Q2: 1
32	 	 	37.2	 	 Q4: 0 	  Q2: 1 	  Q5: 1 	  Q8: 0 	  Q7: 2 	  Q1: 2
33	 	 	33.5	 	 Q5: 0 	  Q2: 1 	  Q4: 1 	  Q6: 2 	  Q7: 2 	  Q3: 1
34	 	 	26.0	 	 Q6: 0 	  Q5: 1 	  Q2: 1 	  Q1: 0 	  Q8: 0 	  Q3: 1
35	 	 	28.4	 	 Q8: 0 	  Q7: 0 	  Q3: 0 	  Q4: 0 	  Q1: 0 	  Q5: 0
36	 	 	15.0	 	 Q2: 0 	  Q5: 0 	  Q3: 0 	  Q7: 0 	  Q6: 2 	  Q8: 2
37	 	 	24.4	 	 Q8: 2 	  Q1: 2 	  Q5: 0 	  Q4: 0 	  Q0: 2 	  Q7: 2
38	 	 	36.3	 	 Q3: 2 	  Q8: 2 	  Q6: 2 	  Q1: 0 	  Q7: 1 	  Q4: 2
39	 	 	36.1	 	 Q2: 2 	  Q7: 1 	  Q8: 2 	  Q5: 0 	  Q0: 2 	  Q1: 0
40	 	 	32.9	 	 Q0: 1 	  Q8: 2 	  Q6: 1 	  Q1: 0 	  Q3: 2 	  Q5: 1
====================================================================================================================
TaskID 	 Duration 	 Skill 	 Predecessor IDs
1	 	 	38	 Q4: 2
2	 	 	11	 Q4: 2	 	1
3	 	 	38	 Q7: 0	 	2
4	 	 	10	 Q6: 0
5	 	 	30	 Q2: 2
6	 	 	27	 Q8: 0	 	5
7	 	 	38	 Q4: 2	 	6
8	 	 	15	 Q5: 2
9	 	 	39	 Q1: 1
10	 	 	38	 Q6: 1	 	9
11	 	 	14	 Q3: 1
12	 	 	35	 Q6: 1	 	11
13	 	 	17	 Q5: 1	 	12
14	 	 	40	 Q6: 2
15	 	 	11	 Q1: 0	 	12	14
16	 	 	32	 Q0: 2	 	2
17	 	 	31	 Q4: 0
18	 	 	36	 Q7: 2	 	17
19	 	 	27	 Q0: 2
20	 	 	25	 Q5: 1	 	19
21	 	 	14	 Q6: 2	 	20
22	 	 	26	 Q5: 0
23	 	 	34	 Q3: 2	 	7
24	 	 	24	 Q1: 2	 	23
25	 	 	23	 Q1: 2	 	24
26	 	 	19	 Q7: 1	 	25
27	 	 	11	 Q6: 1	 	25
28	 	 	32	 Q2: 2	 	27	25
29	 	 	40	 Q0: 1	 	28	26
30	 	 	24	 Q2: 2	 	29
31	 	 	22	 Q2: 0	 	30
32	 	 	30	 Q1: 2	 	24	30
33	 	 	23	 Q3: 0	 	30
34	 	 	30	 Q3: 2	 	33	30
35	 	 	39	 Q5: 1	 	34	30
36	 	 	16	 Q1: 2	 	35	34	30
37	 	 	21	 Q1: 1	 	36	28
38	 	 	29	 Q7: 2	 	37	32	30
39	 	 	16	 Q5: 1
40	 	 	26	 Q1: 2	 	39
41	 	 	37	 Q6: 2	 	40
42	 	 	29	 Q8: 1	 	41
43	 	 	26	 Q8: 0	 	31	42
44	 	 	26	 Q2: 1
45	 	 	9	 Q3: 2	 	44
46	 	 	13	 Q5: 0	 	44
47	 	 	26	 Q1: 2	 	46	44
48	 	 	18	 Q7: 0	 	47	44
49	 	 	23	 Q7: 1	 	48	44
50	 	 	38	 Q3: 2	 	49	48	44
51	 	 	31	 Q8: 0	 	50	48	44
52	 	 	38	 Q1: 0	 	51	38	48	44
53	 	 	9	 Q0: 1	 	48	44
54	 	 	36	 Q0: 2	 	53	48	44
55	 	 	37	 Q7: 2	 	54	44
56	 	 	30	 Q8: 1	 	55	54	44
57	 	 	19	 Q3: 2	 	48	44
58	 	 	27	 Q7: 2	 	57	48	44
59	 	 	18	 Q8: 2	 	58	48	44
60	 	 	25	 Q1: 0	 	59	44
61	 	 	11	 Q7: 2	 	60	59	44
62	 	 	34	 Q3: 2	 	48	44
63	 	 	38	 Q8: 0	 	62	48	44
64	 	 	34	 Q3: 1	 	52	63	48	44
65	 	 	20	 Q0: 0	 	53	48	44
66	 	 	34	 Q8: 1	 	65	48	44
67	 	 	35	 Q0: 2	 	66	44
68	 	 	19	 Q1: 2	 	67	66	44
69	 	 	33	 Q5: 1	 	66	44
70	 	 	38	 Q0: 1	 	66	44
71	 	 	11	 Q4: 1	 	61	44
72	 	 	40	 Q2: 2	 	71	61	44
73	 	 	27	 Q2: 1	 	61	44
74	 	 	11	 Q0: 2	 	73	60	61	44
75	 	 	40	 Q0: 0	 	61	44
76	 	 	30	 Q1: 0	 	44
77	 	 	14	 Q6: 2	 	44
78	 	 	27	 Q0: 2	 	76	61	44
79	 	 	22	 Q4: 2	 	78	61	44
80	 	 	36	 Q1: 0	 	67	61	44
81	 	 	11	 Q8: 2	 	61	44
82	 	 	34	 Q7: 2	 	81	61	44
83	 	 	19	 Q2: 1	 	82	66	44
84	 	 	24	 Q1: 2	 	66	44
85	 	 	12	 Q1: 2	 	84	66	44
86	 	 	36	 Q2: 2	 	80	66	44
87	 	 	9	 Q7: 0	 	86	79	66
88	 	 	18	 Q0: 2	 	66	44
89	 	 	37	 Q2: 0	 	48	44
90	 	 	9	 Q6: 0	 	89	74	48	44
91	 	 	36	 Q5: 2	 	77	48	44
92	 	 	33	 Q0: 1	 	48	44
93	 	 	12	 Q1: 1	 	92
94	 	 	16	 Q7: 1	 	93	92
95	 	 	20	 Q3: 2	 	93	92
96	 	 	13	 Q6: 1	 	95	93	92
97	 	 	34	 Q4: 1	 	85	91	96	93	92
98	 	 	10	 Q1: 0	 	97	93	92
99	 	 	39	 Q2: 2	 	92	96	98
100	 	 	16	 Q2: 1	 	92	96	98
101	 	 	34	 Q6: 2	 	100	98	96	92
102	 	 	34	 Q2: 1	 	101	93	92
103	 	 	24	 Q1: 1	 	92
104	 	 	37	 Q7: 2	 	94	92
105	 	 	14	 Q0: 0	 	92
106	 	 	14	 Q2: 2	 	105	92
107	 	 	18	 Q3: 1	 	92
108	 	 	11	 Q4: 2	 	107	92
109	 	 	38	 Q3: 2	 	92
110	 	 	30	 Q3: 2	 	109	92
111	 	 	24	 Q6: 1	 	92	108	107
112	 	 	10	 Q2: 0	 	92	108	107
113	 	 	32	 Q4: 1	 	104	92	108	107
114	 	 	17	 Q7: 1	 	113	92	108	107
115	 	 	13	 Q5: 2	 	92	108	107
116	 	 	9	 Q5: 0	 	115	107	92
117	 	 	37	 Q3: 1	 	103	108	92
118	 	 	37	 Q6: 0	 	108	92
119	 	 	40	 Q1: 2	 	92	108
120	 	 	16	 Q3: 2	 	92	108	119
121	 	 	37	 Q4: 1	 	120	118	92	108	119
122	 	 	19	 Q3: 1	 	121	120	118	92	108	119
123	 	 	33	 Q3: 2	 	122	92	108	119
124	 	 	25	 Q2: 1	 	92	108	119
125	 	 	19	 Q3: 0	 	124	92	108	119
126	 	 	22	 Q1: 1	 	92	108	119
127	 	 	18	 Q1: 0	 	126	108	119
128	 	 	40	 Q7: 1	 	127	108	119
129	 	 	10	 Q2: 1	 	120	92	108	119
130	 	 	35	 Q8: 1	 	92	108	119
131	 	 	34	 Q4: 0	 	130	92	108	119
132	 	 	34	 Q3: 1	 	131	92	108	119
133	 	 	12	 Q5: 2	 	132	92	108	119
134	 	 	18	 Q7: 1	 	126	133	92	108	119
135	 	 	32	 Q3: 2	 	128	92	108	119
136	 	 	30	 Q3: 2	 	128	92	108	119
137	 	 	19	 Q8: 0	 	130	108	119
138	 	 	17	 Q8: 1	 	136	92	108	119
139	 	 	17	 Q8: 2	 	136	92	108	119
140	 	 	23	 Q6: 2	 	92	108	119	139
141	 	 	25	 Q7: 0	 	140	92	108	119	139
142	 	 	17	 Q0: 1	 	135	139	92	108	119
143	 	 	23	 Q4: 2	 	142	139	92	108	119
144	 	 	38	 Q7: 1	 	143	92	108	119
145	 	 	22	 Q3: 1	 	143	92	108	119
146	 	 	18	 Q5: 2	 	145	143	92	108	119
147	 	 	16	 Q0: 1	 	143	92	108	119
148	 	 	20	 Q1: 1	 	143	92	108	119
149	 	 	16	 Q0: 2	 	148	147	143	92	108	119
150	 	 	32	 Q2: 2	 	149	143	92	108	119
151	 	 	29	 Q4: 2	 	92	108	119
152	 	 	38	 Q5: 2	 	151	92	108	119
153	 	 	23	 Q1: 0	 	152	92	108	119
154	 	 	32	 Q7: 2	 	150	92	108	119
====================================================================================================================
